Instance name : R210
Authors : bauke
Date :    21-05-13
Reference : N/A
Solution
Route 1 : 27 52 7 19 36 47 48 82 18 83 45 86 38 44 16 85 99 96 6 94 87 53 40 21 73 72 22 41 74 56 4 55 25 54 26 58
Route 2 : 28 33 71 65 30 1 69 31 88 62 11 64 49 46 8 84 61 91 14 43 57 2 13 97 37 98 100 93 17 5 60 89
Route 3 : 95 59 92 42 15 75 23 67 39 12 76 3 79 29 78 81 9 51 20 32 90 63 10 70 66 35 34 24 80 68 77 50

